outputformatter/SmallMatrix.sol
# Objective value = 0
x(0,0) 0
x(0,1) 0
x(0,2) 1
x(0,3) 0
x(1,0) 0
x(1,1) 0
x(1,2) 1
x(1,3) 0
x(2,0) 0
x(2,1) 0
x(2,2) 1
x(2,3) 0
x(3,0) 0
x(3,1) 1
x(3,2) 0
x(3,3) 0
x(4,0) 1
x(4,1) 0
x(4,2) 0
x(4,3) 0
x(5,0) 0
x(5,1) 0
x(5,2) 0
x(5,3) 1
x(6,0) 0
x(6,1) 0
x(6,2) 1
x(6,3) 0
z(0,0) 1
z(0,1) 1
z(0,2) 0
z(0,3) 1
z(1,0) 0
z(1,1) 1
z(1,2) 1
z(1,3) 0
z(2,0) 0
z(2,1) 1
z(2,2) 0
z(2,3) 1
z(3,0) 0
z(3,1) 1
z(3,2) 0
z(3,3) 1
z(4,0) 0
z(4,1) 0
z(4,2) 0
z(4,3) 1
